; benchmark generated from python API
(set-info :status unknown)
(declare-sort node 0)
 (declare-sort phase 0)
 (declare-sort quorum 0)
 (declare-sort value 0)
 (declare-fun member (node quorum) Bool)
(declare-fun phase_decide () phase)
(declare-fun phase_becomeLeader () phase)
(declare-fun phase_recvVote () phase)
(declare-fun phase_sendVote () phase)
(declare-fun phase_sendRequestVote () phase)
(declare-fun __vote_msg (node node) Bool)
(declare-fun __decided (node value) Bool)
(declare-fun __voted (node) Bool)
(declare-fun __leader (node) Bool)
(declare-fun __votes (node node) Bool)
(declare-fun __curr_phase () phase)
(declare-fun __vote_request_msg (node node) Bool)
(assert
 (let (($x29331 (forall ((Q1 quorum) (Q2 quorum) )(exists ((N node) )(and (member N Q1) (member N Q2)))
 )
 ))
 (let (($x9503 (= phase_becomeLeader phase_decide)))
 (let (($x6305 (not $x9503)))
 (let (($x13944 (= phase_recvVote phase_decide)))
 (let (($x4365 (not $x13944)))
 (let (($x4251 (= phase_recvVote phase_becomeLeader)))
 (let (($x9887 (not $x4251)))
 (let (($x24425 (= phase_sendVote phase_decide)))
 (let (($x16869 (not $x24425)))
 (let (($x14254 (= phase_sendVote phase_becomeLeader)))
 (let (($x415 (not $x14254)))
 (let (($x463 (= phase_sendVote phase_recvVote)))
 (let (($x836 (not $x463)))
 (let (($x751 (= phase_sendRequestVote phase_decide)))
 (let (($x10066 (not $x751)))
 (let (($x31293 (= phase_sendRequestVote phase_becomeLeader)))
 (let (($x34670 (not $x31293)))
 (let (($x11932 (= phase_sendRequestVote phase_recvVote)))
 (let (($x838 (not $x11932)))
 (let (($x714 (= phase_sendRequestVote phase_sendVote)))
 (let (($x394 (not $x714)))
 (let (($x810 (and $x394 $x838 $x34670 $x10066 $x836 $x415 $x16869 $x9887 $x4365 $x6305 $x29331)))
 (let (($x1397674 (exists ((|Q:node:i:1| node) (|Q:node:i:2| node) (|Q:node:i:0| node) )(let (($x17476 (__vote_msg |Q:node:i:2| |Q:node:i:0|)))
 (and $x17476 (not (= |Q:node:i:0| |Q:node:i:1|)) (__vote_msg |Q:node:i:2| |Q:node:i:1|))))
 ))
 (let (($x1399506 (not $x1397674)))
 (let (($x1409402 (forall ((V1 value) (V2 value) (N1 node) (N2 node) )(let (($x1418326 (= V1 V2)))
 (let (($x60504 (and (__decided N1 V1) (__decided N2 V2))))
 (=> $x60504 $x1418326))))
 ))
 (let (($x57883 (exists ((|Q:node:i:1| node) (|Q:node:i:0| node) )(let (($x17476 (__vote_msg |Q:node:i:1| |Q:node:i:0|)))
 (and $x17476 (not (__voted |Q:node:i:1|)))))
 ))
 (let (($x1414085 (not $x57883)))
 (let (($x607 (exists ((|Q:value:i:0| value) (|Q:node:i:0| node) )(let (($x14337 (__decided |Q:node:i:0| |Q:value:i:0|)))
 (let (($x28120 (__leader |Q:node:i:0|)))
 (let (($x55330 (not $x28120)))
 (and $x55330 $x14337)))))
 ))
 (let (($x435 (not $x607)))
 (let (($x66807 (exists ((|Q:node:i:1| node) (|Q:node:i:0| node) )(let (($x17476 (__vote_msg |Q:node:i:1| |Q:node:i:0|)))
 (let (($x60651 (not $x17476)))
 (let (($x4612 (__votes |Q:node:i:0| |Q:node:i:1|)))
 (and $x4612 $x60651)))))
 ))
 (let (($x1396562 (not $x66807)))
 (let (($x1459106 (forall ((|Q:quorum:i:0| quorum) )(exists ((|Q:node:i:1| node) (|Q:quorum:i:2| quorum) (|Q:node:i:2| node) (|Q:node:i:0| node) )(let (($x4612 (__votes |Q:node:i:0| |Q:node:i:2|)))
 (let (($x56749 (not $x4612)))
 (let (($x1413684 (not (__votes |Q:node:i:0| |Q:node:i:1|))))
 (let (($x62359 (member |Q:node:i:2| |Q:quorum:i:2|)))
 (let (($x28120 (__leader |Q:node:i:0|)))
 (and (or (= |Q:quorum:i:2| |Q:quorum:i:0|) (member |Q:node:i:1| |Q:quorum:i:0|)) $x28120 $x62359 $x1413684 $x56749)))))))
 )
 ))
 (let (($x1461664 (not $x1459106)))
 (let (($x1461665 (and $x1461664 $x1396562 $x435 $x1414085 $x1409402 $x1399506)))
 (let (($x1461661 (not $x1461665)))
 (let (($x31507 (= __curr_phase phase_sendRequestVote)))
 (let (($x65836 (forall ((V1 value) (V0 node) )(let (($x14337 (__decided V0 V1)))
 (not $x14337)))
 ))
 (let (($x56572 (forall ((V0 node) )(let (($x28120 (__leader V0)))
 (not $x28120)))
 ))
 (let (($x61179 (forall ((V118 node) (V0 node) )(let (($x4612 (__votes V0 V118)))
 (not $x4612)))
 ))
 (let (($x58128 (forall ((V0 node) (V117 node) )(let (($x17476 (__vote_msg V0 V117)))
 (not $x17476)))
 ))
 (let (($x65246 (forall ((V0 node) )(let (($x46228 (__voted V0)))
 (not $x46228)))
 ))
 (let (($x59905 (forall ((V0 node) (V116 node) )(let (($x39664 (__vote_request_msg V0 V116)))
 (not $x39664)))
 ))
 (let (($x59960 (and $x59905 $x65246 $x58128 $x61179 $x56572 $x65836 $x31507)))
 (and $x59960 $x1461661 $x810)))))))))))))))))))))))))))))))))))))))))))))
(check-sat)
